106179
73,31,81,39,10,74,34,27,78,29,1,37,15,32,26,6,55,50,71,80,46,48,33,59,42,56,2,11,22,54,41,24,68,14,5,60,77,40,51,38,62,3,49,64,30,23,18,52,82,7,58,67,43,21,4,47,17,36,12,0,9,28,63,72,44,79,45,53,20,70,65,35,25,61,69,13,75,66,19,8,76,16,57
